80	1
0 42
0 46
0 49
0 51
0 41
0 54
0 52
0 43
0 48
0 50
0 60
0 56
0 63
0 49
0 51
0 57
0 57
0 55
0 55
0 51
0 50
0 59
0 43
0 56
0 48
0 59
0 50
0 39
0 50
0 44
0 53
0 54
0 60
0 47
0 52
0 47
0 51
0 47
0 43
0 44
0 54
0 55
0 42
0 52
0 46
0 46
0 44
0 47
0 51
0 48
0 54
0 50
0 47
0 54
0 42
0 52
0 45
0 60
0 48
0 55
0 41
0 44
0 57
0 46
0 54
0 55
0 47
0 48
0 57
0 52
0 54
0 49
0 50
0 50
0 51
0 49
0 45
0 53
0 46
0 60
